Optimal - objective value 7.00000000
     17 r_17                        1                       1
     25 r_25                        1                       1
     29 r_29                        1                       1
     51 b_11                        1                       1
     60 b_20                        1                       1
     64 b_24                        1                       1
     79 b_39                        1                       1
